Input: forum-13crafb.prec25.dzn
============================================================
Total Runtime: 2.7405 seconds
Input parsing: 0.0010 seconds
Constraint building: 0.6916 seconds
MaxSAT solving: 1.5885 seconds
============================================================

Total variables: 223804
Total clauses: 471968
MaxSAT found with cost: 0
NO SOLUTION FOUND
